results/x-long/X-n106-k14.vrp_seed-34.out
26362	1044
