results/x-long/X-n106-k14.vrp_seed-34.vrp.sol
Route #1: 62 26 90 24 102 92 52
Route #2: 7 75 84 9 12 104 1
Route #3: 86 18 41 10 16 20 56
Route #4: 22 33
Route #5: 53 103 101 93 97 43 87 60
Route #6: 78 19 27 37 79 46 66 28
Route #7: 57 63 31 40 13 85 21 74
Route #8: 54 77 83 2 17 69 105 64 94 82
Route #9: 68 95 38 65 80 61 47 25
Route #10: 5 44 15 76 51 100 45 96
Route #11: 71 49 99 11 34 72 29
Route #12: 67 48 8 36 91 88 58 14
Route #13: 35 73 32 3 23 42 30 89 59
Route #14: 55 98 4 70 6 81 50 39
Cost 26362.000000